
50
139346

219189 3288
655500 9833
639501 9593
612236 9184
526640 7900
583370 8751
333 5
417979 6270
165125 2477
486975 7305
288252 4324
373381 5601
361848 5428
384114 5762
551572 8274
654367 9816
230388 3456
537439 8062
592837 8893
261386 3921
82329 1235
331583 4974
509774 7647
349449 5242
122993 1845
470309 7055
216389 3246
590837 8863
112327 1685
395913 5939
256987 3855
656633 9850
92462 1387
586770 8802
278452 4177
247920 3719
138793 2082
329716 4946
619569 9294
666233 9994
626368 9396
407512 6113
157392 2361
338183 5073
433178 6498
197323 2960
657967 9870
56397 846
156592 2349
135526 2033
